qbf_easy_train/easy_3992_SAT.qdimacs
p cnf 18 37
a 2 13 14 0
e 1 3 4 5 6 7 8 9 10 11 12 15 16 17 18 0
-3 -1 0
-3 2 0
1 -2 3 0
6 4 0
6 -5 0
-4 5 -6 0
8 -7 0
8 1 0
7 -1 -8 0
10 4 0
10 9 0
-4 -9 -10 0
11 8 0
11 -10 0
-8 10 -11 0
6 11 -12 0
-6 -11 -12 0
6 -11 12 0
-6 11 12 0
-3 -12 -13 0
3 12 -13 0
-3 12 13 0
3 -12 13 0
16 14 0
16 -15 0
-14 15 -16 0
-16 14 -17 0
16 -14 -17 0
-16 -14 17 0
16 14 17 0
18 13 0
18 17 0
-13 -17 -18 0
-17 -4 1 18 2 0
-11 -4 8 2 -1 -17 13 0
-9 15 2 17 -6 0
18 0
