sat_easy_train/easy_3992_SAT.dimacs
p cnf 79 243
4 -2 0
4 -3 0
2 3 -4 0
1 -4 -5 0
-1 4 -5 0
1 4 5 0
-1 -4 5 0
-5 -6 -7 0
5 6 -7 0
-5 6 7 0
5 -6 7 0
10 9 0
10 1 0
-9 -1 -10 0
-12 -10 0
-12 11 0
10 -11 12 0
-13 8 0
-13 12 0
-8 -12 13 0
14 -7 0
14 -13 0
7 13 -14 0
-11 16 -17 0
11 -16 -17 0
-11 -16 17 0
11 16 17 0
-17 -15 -18 0
17 15 -18 0
-17 15 18 0
17 -15 18 0
-19 10 0
-19 18 0
-10 -18 19 0
20 -15 0
20 19 0
15 -19 -20 0
11 2 -21 0
-11 -2 -21 0
11 -2 21 0
-11 2 21 0
-22 21 0
-22 -21 0
10 -22 -23 0
-10 22 -23 0
10 22 23 0
-10 -22 23 0
-26 -15 0
-26 -25 0
15 25 26 0
24 -26 -27 0
-24 26 -27 0
24 26 27 0
-24 -26 27 0
-27 9 -28 0
27 -9 -28 0
-27 -9 28 0
27 9 28 0
29 23 0
29 28 0
-23 -28 -29 0
-30 -20 0
-30 -29 0
20 29 30 0
14 -30 -31 0
-14 30 -31 0
14 30 31 0
-14 -30 31 0
-33 32 0
-33 -11 0
-32 11 33 0
-34 3 0
-34 33 0
-3 -33 34 0
-15 -34 -35 0
15 34 -35 0
-15 34 35 0
15 -34 35 0
-36 31 0
-36 -35 0
-31 35 36 0
38 11 0
38 -37 0
-11 37 -38 0
-15 17 -39 0
15 -17 -39 0
-15 -17 39 0
15 17 39 0
40 -24 0
40 -39 0
24 39 -40 0
-42 41 0
-42 -25 0
-41 25 42 0
-40 -42 -43 0
40 42 -43 0
-40 42 43 0
40 -42 43 0
38 -43 -44 0
-38 43 -44 0
38 43 44 0
-38 -43 44 0
45 15 0
45 2 0
-15 -2 -45 0
-26 -45 -46 0
26 45 -46 0
-26 45 46 0
26 -45 46 0
47 -44 0
47 -46 0
44 46 -47 0
-48 22 0
-48 26 0
-22 -26 48 0
-49 -48 0
-49 -6 0
48 6 49 0
21 -49 -50 0
-21 49 -50 0
21 49 50 0
-21 -49 50 0
-6 50 -51 0
6 -50 -51 0
-6 -50 51 0
6 50 51 0
-52 -19 0
-52 49 0
19 -49 52 0
53 51 0
53 52 0
-51 -52 -53 0
-55 -5 0
-55 -54 0
5 54 55 0
-56 2 0
-56 -9 0
-2 9 56 0
-8 -57 0
8 -57 0
58 -56 0
58 57 0
56 -57 -58 0
55 58 -59 0
-55 -58 -59 0
55 -58 59 0
-55 58 59 0
-53 59 -60 0
53 -59 -60 0
-53 -59 60 0
53 59 60 0
21 27 -61 0
-21 -27 -61 0
21 -27 61 0
-21 27 61 0
-48 61 -62 0
48 -61 -62 0
-48 -61 62 0
48 61 62 0
-63 60 0
-63 -62 0
-60 62 63 0
-17 15 -64 0
17 -15 -64 0
-17 -15 64 0
17 15 64 0
65 57 0
65 11 0
-57 -11 -65 0
66 -64 0
66 -65 0
64 65 -66 0
67 63 0
67 66 0
-63 -66 -67 0
69 -11 0
69 15 0
11 -15 -69 0
-70 9 0
-70 69 0
-9 -69 70 0
70 -56 -71 0
-70 56 -71 0
70 56 71 0
-70 -56 71 0
72 -27 0
72 71 0
27 -71 -72 0
73 -72 0
73 -15 0
72 15 -73 0
-74 -68 0
-74 -73 0
68 73 74 0
75 26 0
75 -11 0
-26 11 -75 0
-76 74 0
-76 75 0
-74 -75 76 0
67 -76 -77 0
-67 76 -77 0
67 76 77 0
-67 -76 77 0
78 47 0
78 77 0
-47 -77 -78 0
-79 -36 0
-79 78 0
36 -78 79 0
-23 -42 -28 58 0
-75 28 9 0
71 -15 -43 0
6 18 0
13 34 -17 21 -50 0
61 -17 15 -31 -22 -19 0
7 -44 0
66 -30 24 -46 0
-47 -8 -22 38 12 26 0
-23 -61 14 78 -10 0
55 79 0
-42 75 69 78 0
-23 27 59 64 0
-4 10 -67 20 33 0
-56 34 29 31 -71 24 0
31 66 57 21 0
-67 32 77 -40 -63 0
-45 77 -43 0
22 69 -72 -13 0
54 -62 -76 14 0
62 64 0
-30 4 0
-39 -4 -15 0
-42 10 47 0
40 -42 -62 59 66 52 0
64 -31 -61 0
-64 -68 40 0
63 -16 0
78 -29 0
-53 -74 55 -65 -10 0
12 24 25 -11 51 43 0
-6 -33 0
79 0
